true true true
presolving:
presolving (0 rounds: 0 fast, 0 medium, 0 exhaustive):
 0 deleted vars, 0 deleted constraints, 0 added constraints, 0 tightened bounds, 0 added holes, 0 changed sides, 0 changed coefficients
 0 implications, 0 cliques
presolved problem has 42 variables (42 bin, 0 int, 0 impl, 0 cont) and 34 constraints
     34 constraints of type <linear>
transformed objective value is always integral (scale: 1)
Presolving Time: 0.00

 time | node  | left  |LP iter|LP it/n|mem/heur|mdpt |vars |cons |rows |cuts |sepa|confs|strbr|  dualbound   | primalbound  |  gap   | compl. 
p 0.0s|     1 |     0 |     0 |     - |shiftand|   0 |  42 |  34 |  34 |   0 |  0 |   0 |   0 |      --      | 8.000000e+00 |    Inf | unknown
 time | node  | left  |LP iter|LP it/n|mem/heur|mdpt |vars |cons |rows |cuts |sepa|confs|strbr|  dualbound   | primalbound  |  gap   | compl. 
  0.0s|     1 |     0 |    24 |     - |  1965k |   0 | 467 |  34 |  34 |   0 |  0 |   0 |   0 | 1.000000e+00 | 8.000000e+00 | 700.00%| unknown
 time | node  | left  |LP iter|LP it/n|mem/heur|mdpt |vars |cons |rows |cuts |sepa|confs|strbr|  dualbound   | primalbound  |  gap   | compl. 
  0.5s|     1 |     0 |   269 |     - |  5817k |   0 |1674 |  34 |  34 |   0 |  0 |   0 |   0 | 7.000000e+00 | 8.000000e+00 |  14.29%| unknown
 time | node  | left  |LP iter|LP it/n|mem/heur|mdpt |vars |cons |rows |cuts |sepa|confs|strbr|  dualbound   | primalbound  |  gap   | compl. 
  0.6s|     1 |     2 |   485 |     - |  6234k |   0 |1674 |  34 |  34 |   0 |  1 |   0 |   0 | 7.000000e+00 | 8.000000e+00 |  14.29%| unknown
 time | node  | left  |LP iter|LP it/n|mem/heur|mdpt |vars |cons |rows |cuts |sepa|confs|strbr|  dualbound   | primalbound  |  gap   | compl. 
  0.7s|     2 |     3 |   488 |   3.0 |  6315k |   1 |1674 |  34 |  34 |   0 |  1 |   0 |   0 | 7.000000e+00 | 8.000000e+00 |  14.29%| unknown
 time | node  | left  |LP iter|LP it/n|mem/heur|mdpt |vars |cons |rows |cuts |sepa|confs|strbr|  dualbound   | primalbound  |  gap   | compl. 
  0.7s|     3 |     4 |   525 |  20.0 |  6703k |   1 |1674 |  34 |  34 |   0 |  1 |   0 |   0 | 7.000000e+00 | 8.000000e+00 |  14.29%| unknown
 time | node  | left  |LP iter|LP it/n|mem/heur|mdpt |vars |cons |rows |cuts |sepa|confs|strbr|  dualbound   | primalbound  |  gap   | compl. 
  0.7s|     4 |     5 |   528 |  14.3 |  6738k |   2 |1674 |  34 |  34 |   0 |  1 |   0 |   0 | 7.000000e+00 | 8.000000e+00 |  14.29%| unknown
 time | node  | left  |LP iter|LP it/n|mem/heur|mdpt |vars |cons |rows |cuts |sepa|confs|strbr|  dualbound   | primalbound  |  gap   | compl. 
  0.8s|     5 |     6 |   739 |  63.5 |  7144k |   2 |1674 |  34 |  34 |   0 |  1 |   0 |   0 | 7.000000e+00 | 8.000000e+00 |  14.29%| unknown
 time | node  | left  |LP iter|LP it/n|mem/heur|mdpt |vars |cons |rows |cuts |sepa|confs|strbr|  dualbound   | primalbound  |  gap   | compl. 
  0.9s|     6 |     7 |   762 |  55.4 |  7181k |   3 |1674 |  34 |  34 |   0 |  1 |   0 |   0 | 7.000000e+00 | 8.000000e+00 |  14.29%| unknown
 time | node  | left  |LP iter|LP it/n|mem/heur|mdpt |vars |cons |rows |cuts |sepa|confs|strbr|  dualbound   | primalbound  |  gap   | compl. 
  1.0s|     7 |     8 |   766 |  46.8 |  7190k |   4 |1674 |  34 |  34 |   0 |  1 |   0 |   0 | 7.000000e+00 | 8.000000e+00 |  14.29%| unknown
 time | node  | left  |LP iter|LP it/n|mem/heur|mdpt |vars |cons |rows |cuts |sepa|confs|strbr|  dualbound   | primalbound  |  gap   | compl. 
  1.0s|     8 |     9 |   799 |  44.9 |  7194k |   4 |1674 |  34 |  34 |   0 |  1 |   0 |   0 | 7.000000e+00 | 8.000000e+00 |  14.29%| unknown
 time | node  | left  |LP iter|LP it/n|mem/heur|mdpt |vars |cons |rows |cuts |sepa|confs|strbr|  dualbound   | primalbound  |  gap   | compl. 
  1.1s|     9 |    10 |   805 |  40.0 |  7206k |   5 |1674 |  34 |  34 |   0 |  1 |   0 |   0 | 7.000000e+00 | 8.000000e+00 |  14.29%| unknown
 time | node  | left  |LP iter|LP it/n|mem/heur|mdpt |vars |cons |rows |cuts |sepa|confs|strbr|  dualbound   | primalbound  |  gap   | compl. 
  1.2s|    10 |    11 |   816 |  36.8 |  7207k |   6 |1674 |  34 |  34 |   0 |  1 |   0 |   0 | 7.000000e+00 | 8.000000e+00 |  14.29%| unknown
 time | node  | left  |LP iter|LP it/n|mem/heur|mdpt |vars |cons |rows |cuts |sepa|confs|strbr|  dualbound   | primalbound  |  gap   | compl. 
  1.3s|    11 |    12 |   884 |  39.9 |  8623k |   7 |2170 |  34 |  34 |   0 |  1 |   0 |   0 | 7.000000e+00 | 8.000000e+00 |  14.29%| unknown
 time | node  | left  |LP iter|LP it/n|mem/heur|mdpt |vars |cons |rows |cuts |sepa|confs|strbr|  dualbound   | primalbound  |  gap   | compl. 
  1.4s|    12 |    13 |   905 |  38.2 |  8627k |   8 |2170 |  34 |  34 |   0 |  1 |   0 |   0 | 7.000000e+00 | 8.000000e+00 |  14.29%| unknown
 time | node  | left  |LP iter|LP it/n|mem/heur|mdpt |vars |cons |rows |cuts |sepa|confs|strbr|  dualbound   | primalbound  |  gap   | compl. 
  1.5s|    13 |    12 |   915 |  35.8 |  8719k |   8 |2170 |  34 |  34 |   0 |  0 |   0 |   0 | 7.000000e+00 | 8.000000e+00 |  14.29%| unknown
 time | node  | left  |LP iter|LP it/n|mem/heur|mdpt |vars |cons |rows |cuts |sepa|confs|strbr|  dualbound   | primalbound  |  gap   | compl. 
  1.6s|    14 |    13 |   938 |  34.8 |  8727k |   9 |2170 |  34 |  34 |   0 |  1 |   0 |   0 | 7.000000e+00 | 8.000000e+00 |  14.29%| unknown
 time | node  | left  |LP iter|LP it/n|mem/heur|mdpt |vars |cons |rows |cuts |sepa|confs|strbr|  dualbound   | primalbound  |  gap   | compl. 
  1.7s|    15 |    14 |   939 |  32.4 |  8833k |  10 |2170 |  34 |  34 |   0 |  1 |   0 |   0 | 7.000000e+00 | 8.000000e+00 |  14.29%| unknown
 time | node  | left  |LP iter|LP it/n|mem/heur|mdpt |vars |cons |rows |cuts |sepa|confs|strbr|  dualbound   | primalbound  |  gap   | compl. 
r 1.8s|    16 |     0 |   941 |  30.4 |simplero|  11 |2170 |  34 |  34 |   0 |  0 |   0 |   0 | 7.000000e+00 | 7.000000e+00 |   0.00%|  99.98%

SCIP Status        : problem is solved [optimal solution found]
Solving Time (sec) : 1.79
Solving Nodes      : 16
Primal Bound       : +7.00000000000000e+00 (4 solutions)
Dual Bound         : +7.00000000000000e+00
Gap                : 0.00 %
Running with parallel: True bidir: True symbreak: True
Number of Nodes:  34
47.73814370038673% holds
starting cheapest insertion heuristic
Heuristic without TSP improvement:  8
Heuristic without TSP improvement time:  0.1
Heuristic Sol:  8
Heuristic total time:  0.1
[[2, 14, 28, 17], [8, 20, 6, 15, 7, 4, 3], [24, 11, 21, 19], [25, 5, 9, 27, 1], [33, 23, 13], [32, 0, 12, 30, 10, 26], [31], [29, 18, 22, 16]]
Instance path:  /home/htc/mghannam/SCRATCH/lccp-rust/data/at62_ftv33.npcc
Timelimit:  7200
Heuristic without TSP improvement:  8
Heuristic without TSP improvement time:  0.1
Heuristic Sol:  8
Heuristic total time:  0.2
at 1 zero_duals: 26
at1, LP obj: 8.0 n_added_paths: 425
at 1 zero_duals: 21
at1, LP obj: 8.0 n_added_paths: 157
at 1 zero_duals: 15
at1, LP obj: 8.0 n_added_paths: 312
at 1 zero_duals: 7
Switching to elementary pricing
at1, LP obj: 7.666666666666666 n_added_paths: 536
at 1 zero_duals: 3
at1, LP obj: 6.8 n_added_paths: 90
at 1 zero_duals: 2
Switching to elementary pricing
at1, LP obj: 6.566265060240964 n_added_paths: 102
updated lowerbound from 1.0 to 5
at 1 zero_duals: 4
at1, LP obj: 6.454545454545454 n_added_paths: 4
at 1 zero_duals: 4
Switching to elementary pricing
at1, LP obj: 6.454545454545455 n_added_paths: 6
updated lowerbound from 5.0 to 7
Gap too small = 0, stopping pricing with lb = 7
Gap too small = 0, stopping pricing with lb = 7
Gap too small = 0, stopping pricing with lb = 7
Gap too small = 0, stopping pricing with lb = 7
Gap too small = 0, stopping pricing with lb = 7
Gap too small = 0, stopping pricing with lb = 7
Gap too small = 0, stopping pricing with lb = 7
Gap too small = 0, stopping pricing with lb = 7
Gap too small = 0, stopping pricing with lb = 7
Gap too small = 0, stopping pricing with lb = 7
at 20 zero_duals: 2
Switching to elementary pricing
at20, LP obj: 7.038461538461538 n_added_paths: 496
Gap too small = 0, stopping pricing with lb = 7
Gap too small = 0, stopping pricing with lb = 7
at 23 zero_duals: 33
Switching to elementary pricing
at23, LP obj: 1e+20 n_added_paths: 0
updated lowerbound from 7.0 to 100000000000000000000
Gap too small = 0, stopping pricing with lb = 7
Gap too small = 0, stopping pricing with lb = 7
Gap too small = 0, stopping pricing with lb = 7
Best solution found:
[33, 25, 13, 33] 1.0 1.0
checking cycle [33, 25, 13, 33]
[33, 25, 13, 33] 230 221
[29, 18, 22, 16, 27, 29] 1.0 1.0
checking cycle [29, 18, 22, 16, 27, 29]
[29, 18, 22, 16, 27, 29] 271 256
[9, 8, 2, 5, 4, 9] 1.0 1.0
checking cycle [9, 8, 2, 5, 4, 9]
[9, 8, 2, 5, 4, 9] 550 546
[23, 15, 3, 21, 7, 23] 1.0 1.0
checking cycle [23, 15, 3, 21, 7, 23]
[23, 15, 3, 21, 7, 23] 316 309
[31, 20, 6, 17, 31] 1.0 1.0
checking cycle [31, 20, 6, 17, 31]
[31, 20, 6, 17, 31] 245 243
[28, 14, 0, 11, 24, 19, 28] 1.0 1.0
checking cycle [28, 14, 0, 11, 24, 19, 28]
[28, 14, 0, 11, 24, 19, 28] 275 262
[32, 10, 12, 30, 1, 26, 32] 1.0 1.0
checking cycle [32, 10, 12, 30, 1, 26, 32]
[32, 10, 12, 30, 1, 26, 32] 234 212
